Mack/Bortfeldt(2008)
Bin-Packing-Problem
BP-RG/SBSBPP/SSSCSP
Testcase-ID	7
Problem-ID	32
no_item_types	10
no_items	1473
CONTAINER_DATA (l,w,h)	587	233	1
ITEMS_DATA:
Type	x	y	z	no_items
1	51	38	1	153
2	42	36	1	153
3	47	31	1	138
4	35	24	1	168
5	38	19	1	159
6	45	16	1	146
7	30	20	1	137
8	24	18	1	132
9	24	13	1	132
10	12	10	1	155
